p cnf 694 2603
5 6 7 8 9 0
10 11 12 13 14 0
15 16 17 18 19 0
20 21 22 23 24 0
25 26 27 28 29 0
30 31 32 33 34 0
35 36 37 38 39 0
40 41 42 43 44 0
45 46 47 48 49 0
50 51 52 53 54 0
55 56 57 58 59 0
60 61 62 63 64 0
65 66 67 68 69 0
70 71 72 73 74 0
75 76 77 78 79 0
80 81 82 83 84 0
85 86 87 88 89 0
90 91 92 93 94 0
95 96 97 98 99 0
100 101 102 103 104 0
105 106 107 108 109 0
110 111 112 113 114 0
115 116 117 118 119 0
120 121 122 123 124 0
125 126 127 128 129 0
130 131 132 133 134 0
135 136 137 138 139 0
140 141 142 143 144 0
145 146 147 148 149 0
150 151 152 153 154 0
155 156 157 158 159 0
160 161 162 163 164 0
165 166 167 168 169 0
170 171 172 173 174 0
175 176 177 178 179 0
180 181 182 183 184 0
185 186 187 188 189 0
190 191 192 193 194 0
195 196 197 198 199 0
200 201 202 203 204 0
205 206 207 208 209 0
210 211 212 213 214 0
215 216 217 218 219 0
220 221 222 223 224 0
225 226 227 228 229 0
230 231 232 233 234 0
235 236 237 238 239 0
240 241 242 243 244 0
245 246 247 248 249 0
250 251 252 253 254 0
255 256 257 258 259 0
260 261 262 263 264 0
265 266 267 268 269 0
270 271 272 273 274 0
275 276 277 278 279 0
280 281 282 283 284 0
285 286 287 288 289 0
290 291 292 293 294 0
295 296 297 298 299 0
300 301 302 303 304 0
305 306 307 308 309 0
310 311 312 313 314 0
315 316 317 318 319 0
320 321 322 323 324 0
325 326 327 328 329 0
330 331 332 333 334 0
335 336 337 338 339 0
340 341 342 343 344 0
345 346 347 348 349 0
350 351 352 353 354 0
355 356 357 358 359 0
360 361 362 363 364 0
365 366 367 368 369 0
370 371 372 373 374 0
375 376 377 378 379 0
380 381 382 383 384 0
385 386 387 388 389 0
390 391 392 393 394 0
395 396 397 398 399 0
400 401 402 403 404 0
405 406 407 408 409 0
410 411 412 413 414 0
415 416 417 418 419 0
420 421 422 423 424 0
425 426 427 428 429 0
430 431 432 433 434 0
435 436 437 438 439 0
440 441 442 443 444 0
445 446 447 448 449 0
450 451 452 453 454 0
455 456 457 458 459 0
460 461 462 463 464 0
465 466 467 468 469 0
470 471 472 473 474 0
475 476 477 478 479 0
480 481 482 483 484 0
485 486 487 488 489 0
490 491 492 493 494 0
495 496 497 498 499 0
500 501 502 503 504 0
505 506 507 508 509 0
510 511 512 513 514 0
515 516 517 518 519 0
520 521 522 523 524 0
525 526 527 528 529 0
530 531 532 533 534 0
535 536 537 538 539 0
540 541 542 543 544 0
545 546 547 548 549 0
550 551 552 553 554 0
555 556 557 558 559 0
560 561 562 563 564 0
565 566 567 568 569 0
570 571 572 573 574 0
575 576 577 578 579 0
580 581 582 583 584 0
585 586 587 588 589 0
590 591 592 593 594 0
595 596 597 598 599 0
600 601 602 603 604 0
605 606 607 608 609 0
610 611 612 613 614 0
615 616 617 618 619 0
620 621 622 623 624 0
625 626 627 628 629 0
630 631 632 633 634 0
635 636 637 638 639 0
640 641 642 643 644 0
645 646 647 648 649 0
650 651 652 653 654 0
655 656 657 658 659 0
660 661 662 663 664 0
665 666 667 668 669 0
670 671 672 673 674 0
675 676 677 678 679 0
680 681 682 683 684 0
685 686 687 688 689 0
690 691 692 693 694 0
-5 -180 0
-6 -181 0
-7 -182 0
-8 -183 0
-9 -184 0
-10 -225 0
-11 -226 0
-12 -227 0
-13 -228 0
-14 -229 0
-15 -370 0
-16 -371 0
-17 -372 0
-18 -373 0
-19 -374 0
-20 -90 0
-21 -91 0
-22 -92 0
-23 -93 0
-24 -94 0
-25 -180 0
-26 -181 0
-27 -182 0
-28 -183 0
-29 -184 0
-30 -180 0
-31 -181 0
-32 -182 0
-33 -183 0
-34 -184 0
-30 -680 0
-31 -681 0
-32 -682 0
-33 -683 0
-34 -684 0
-30 -370 0
-31 -371 0
-32 -372 0
-33 -373 0
-34 -374 0
-30 -225 0
-31 -226 0
-32 -227 0
-33 -228 0
-34 -229 0
-30 -90 0
-31 -91 0
-32 -92 0
-33 -93 0
-34 -94 0
-30 -105 0
-31 -106 0
-32 -107 0
-33 -108 0
-34 -109 0
-35 -495 0
-36 -496 0
-37 -497 0
-38 -498 0
-39 -499 0
-35 -180 0
-36 -181 0
-37 -182 0
-38 -183 0
-39 -184 0
-35 -675 0
-36 -676 0
-37 -677 0
-38 -678 0
-39 -679 0
-35 -680 0
-36 -681 0
-37 -682 0
-38 -683 0
-39 -684 0
-35 -370 0
-36 -371 0
-37 -372 0
-38 -373 0
-39 -374 0
-35 -690 0
-36 -691 0
-37 -692 0
-38 -693 0
-39 -694 0
-35 -405 0
-36 -406 0
-37 -407 0
-38 -408 0
-39 -409 0
-35 -90 0
-36 -91 0
-37 -92 0
-38 -93 0
-39 -94 0
-35 -580 0
-36 -581 0
-37 -582 0
-38 -583 0
-39 -584 0
-35 -590 0
-36 -591 0
-37 -592 0
-38 -593 0
-39 -594 0
-35 -455 0
-36 -456 0
-37 -457 0
-38 -458 0
-39 -459 0
-40 -90 0
-41 -91 0
-42 -92 0
-43 -93 0
-44 -94 0
-40 -660 0
-41 -661 0
-42 -662 0
-43 -663 0
-44 -664 0
-45 -675 0
-46 -676 0
-47 -677 0
-48 -678 0
-49 -679 0
-45 -680 0
-46 -681 0
-47 -682 0
-48 -683 0
-49 -684 0
-45 -690 0
-46 -691 0
-47 -692 0
-48 -693 0
-49 -694 0
-45 -90 0
-46 -91 0
-47 -92 0
-48 -93 0
-49 -94 0
-45 -415 0
-46 -416 0
-47 -417 0
-48 -418 0
-49 -419 0
-45 -445 0
-46 -446 0
-47 -447 0
-48 -448 0
-49 -449 0
-50 -490 0
-51 -491 0
-52 -492 0
-53 -493 0
-54 -494 0
-50 -475 0
-51 -476 0
-52 -477 0
-53 -478 0
-54 -479 0
-55 -370 0
-56 -371 0
-57 -372 0
-58 -373 0
-59 -374 0
-55 -90 0
-56 -91 0
-57 -92 0
-58 -93 0
-59 -94 0
-55 -180 0
-56 -181 0
-57 -182 0
-58 -183 0
-59 -184 0
-60 -520 0
-61 -521 0
-62 -522 0
-63 -523 0
-64 -524 0
-60 -305 0
-61 -306 0
-62 -307 0
-63 -308 0
-64 -309 0
-60 -475 0
-61 -476 0
-62 -477 0
-63 -478 0
-64 -479 0
-65 -90 0
-66 -91 0
-67 -92 0
-68 -93 0
-69 -94 0
-65 -180 0
-66 -181 0
-67 -182 0
-68 -183 0
-69 -184 0
-65 -515 0
-66 -516 0
-67 -517 0
-68 -518 0
-69 -519 0
-70 -370 0
-71 -371 0
-72 -372 0
-73 -373 0
-74 -374 0
-70 -390 0
-71 -391 0
-72 -392 0
-73 -393 0
-74 -394 0
-70 -675 0
-71 -676 0
-72 -677 0
-73 -678 0
-74 -679 0
-75 -90 0
-76 -91 0
-77 -92 0
-78 -93 0
-79 -94 0
-80 -165 0
-81 -166 0
-82 -167 0
-83 -168 0
-84 -169 0
-80 -180 0
-81 -181 0
-82 -182 0
-83 -183 0
-84 -184 0
-80 -690 0
-81 -691 0
-82 -692 0
-83 -693 0
-84 -694 0
-80 -370 0
-81 -371 0
-82 -372 0
-83 -373 0
-84 -374 0
-80 -90 0
-81 -91 0
-82 -92 0
-83 -93 0
-84 -94 0
-80 -100 0
-81 -101 0
-82 -102 0
-83 -103 0
-84 -104 0
-85 -370 0
-86 -371 0
-87 -372 0
-88 -373 0
-89 -374 0
-85 -100 0
-86 -101 0
-87 -102 0
-88 -103 0
-89 -104 0
-85 -390 0
-86 -391 0
-87 -392 0
-88 -393 0
-89 -394 0
-85 -675 0
-86 -676 0
-87 -677 0
-88 -678 0
-89 -679 0
-90 -650 0
-91 -651 0
-92 -652 0
-93 -653 0
-94 -654 0
-90 -660 0
-91 -661 0
-92 -662 0
-93 -663 0
-94 -664 0
-90 -675 0
-91 -676 0
-92 -677 0
-93 -678 0
-94 -679 0
-90 -680 0
-91 -681 0
-92 -682 0
-93 -683 0
-94 -684 0
-90 -690 0
-91 -691 0
-92 -692 0
-93 -693 0
-94 -694 0
-90 -95 0
-91 -96 0
-92 -97 0
-93 -98 0
-94 -99 0
-90 -100 0
-91 -101 0
-92 -102 0
-93 -103 0
-94 -104 0
-90 -105 0
-91 -106 0
-92 -107 0
-93 -108 0
-94 -109 0
-90 -115 0
-91 -116 0
-92 -117 0
-93 -118 0
-94 -119 0
-90 -130 0
-91 -131 0
-92 -132 0
-93 -133 0
-94 -134 0
-90 -140 0
-91 -141 0
-92 -142 0
-93 -143 0
-94 -144 0
-90 -145 0
-91 -146 0
-92 -147 0
-93 -148 0
-94 -149 0
-90 -155 0
-91 -156 0
-92 -157 0
-93 -158 0
-94 -159 0
-90 -165 0
-91 -166 0
-92 -167 0
-93 -168 0
-94 -169 0
-90 -175 0
-91 -176 0
-92 -177 0
-93 -178 0
-94 -179 0
-90 -180 0
-91 -181 0
-92 -182 0
-93 -183 0
-94 -184 0
-90 -195 0
-91 -196 0
-92 -197 0
-93 -198 0
-94 -199 0
-90 -200 0
-91 -201 0
-92 -202 0
-93 -203 0
-94 -204 0
-90 -205 0
-91 -206 0
-92 -207 0
-93 -208 0
-94 -209 0
-90 -220 0
-91 -221 0
-92 -222 0
-93 -223 0
-94 -224 0
-90 -225 0
-91 -226 0
-92 -227 0
-93 -228 0
-94 -229 0
-90 -230 0
-91 -231 0
-92 -232 0
-93 -233 0
-94 -234 0
-90 -250 0
-91 -251 0
-92 -252 0
-93 -253 0
-94 -254 0
-90 -255 0
-91 -256 0
-92 -257 0
-93 -258 0
-94 -259 0
-90 -265 0
-91 -266 0
-92 -267 0
-93 -268 0
-94 -269 0
-90 -275 0
-91 -276 0
-92 -277 0
-93 -278 0
-94 -279 0
-90 -295 0
-91 -296 0
-92 -297 0
-93 -298 0
-94 -299 0
-90 -310 0
-91 -311 0
-92 -312 0
-93 -313 0
-94 -314 0
-90 -315 0
-91 -316 0
-92 -317 0
-93 -318 0
-94 -319 0
-90 -320 0
-91 -321 0
-92 -322 0
-93 -323 0
-94 -324 0
-90 -340 0
-91 -341 0
-92 -342 0
-93 -343 0
-94 -344 0
-90 -360 0
-91 -361 0
-92 -362 0
-93 -363 0
-94 -364 0
-90 -370 0
-91 -371 0
-92 -372 0
-93 -373 0
-94 -374 0
-90 -375 0
-91 -376 0
-92 -377 0
-93 -378 0
-94 -379 0
-90 -380 0
-91 -381 0
-92 -382 0
-93 -383 0
-94 -384 0
-90 -390 0
-91 -391 0
-92 -392 0
-93 -393 0
-94 -394 0
-90 -395 0
-91 -396 0
-92 -397 0
-93 -398 0
-94 -399 0
-90 -400 0
-91 -401 0
-92 -402 0
-93 -403 0
-94 -404 0
-90 -405 0
-91 -406 0
-92 -407 0
-93 -408 0
-94 -409 0
-90 -415 0
-91 -416 0
-92 -417 0
-93 -418 0
-94 -419 0
-90 -425 0
-91 -426 0
-92 -427 0
-93 -428 0
-94 -429 0
-90 -435 0
-91 -436 0
-92 -437 0
-93 -438 0
-94 -439 0
-90 -440 0
-91 -441 0
-92 -442 0
-93 -443 0
-94 -444 0
-90 -445 0
-91 -446 0
-92 -447 0
-93 -448 0
-94 -449 0
-90 -450 0
-91 -451 0
-92 -452 0
-93 -453 0
-94 -454 0
-90 -455 0
-91 -456 0
-92 -457 0
-93 -458 0
-94 -459 0
-90 -460 0
-91 -461 0
-92 -462 0
-93 -463 0
-94 -464 0
-90 -475 0
-91 -476 0
-92 -477 0
-93 -478 0
-94 -479 0
-90 -480 0
-91 -481 0
-92 -482 0
-93 -483 0
-94 -484 0
-90 -495 0
-91 -496 0
-92 -497 0
-93 -498 0
-94 -499 0
-90 -500 0
-91 -501 0
-92 -502 0
-93 -503 0
-94 -504 0
-90 -515 0
-91 -516 0
-92 -517 0
-93 -518 0
-94 -519 0
-90 -525 0
-91 -526 0
-92 -527 0
-93 -528 0
-94 -529 0
-90 -535 0
-91 -536 0
-92 -537 0
-93 -538 0
-94 -539 0
-90 -540 0
-91 -541 0
-92 -542 0
-93 -543 0
-94 -544 0
-90 -565 0
-91 -566 0
-92 -567 0
-93 -568 0
-94 -569 0
-90 -570 0
-91 -571 0
-92 -572 0
-93 -573 0
-94 -574 0
-90 -580 0
-91 -581 0
-92 -582 0
-93 -583 0
-94 -584 0
-90 -590 0
-91 -591 0
-92 -592 0
-93 -593 0
-94 -594 0
-90 -605 0
-91 -606 0
-92 -607 0
-93 -608 0
-94 -609 0
-90 -615 0
-91 -616 0
-92 -617 0
-93 -618 0
-94 -619 0
-90 -635 0
-91 -636 0
-92 -637 0
-93 -638 0
-94 -639 0
-95 -680 0
-96 -681 0
-97 -682 0
-98 -683 0
-99 -684 0
-95 -370 0
-96 -371 0
-97 -372 0
-98 -373 0
-99 -374 0
-95 -690 0
-96 -691 0
-97 -692 0
-98 -693 0
-99 -694 0
-95 -390 0
-96 -391 0
-97 -392 0
-98 -393 0
-99 -394 0
-95 -445 0
-96 -446 0
-97 -447 0
-98 -448 0
-99 -449 0
-100 -165 0
-101 -166 0
-102 -167 0
-103 -168 0
-104 -169 0
-100 -650 0
-101 -651 0
-102 -652 0
-103 -653 0
-104 -654 0
-100 -340 0
-101 -341 0
-102 -342 0
-103 -343 0
-104 -344 0
-100 -180 0
-101 -181 0
-102 -182 0
-103 -183 0
-104 -184 0
-100 -675 0
-101 -676 0
-102 -677 0
-103 -678 0
-104 -679 0
-100 -680 0
-101 -681 0
-102 -682 0
-103 -683 0
-104 -684 0
-100 -690 0
-101 -691 0
-102 -692 0
-103 -693 0
-104 -694 0
-100 -370 0
-101 -371 0
-102 -372 0
-103 -373 0
-104 -374 0
-100 -230 0
-101 -231 0
-102 -232 0
-103 -233 0
-104 -234 0
-100 -390 0
-101 -391 0
-102 -392 0
-103 -393 0
-104 -394 0
-100 -105 0
-101 -106 0
-102 -107 0
-103 -108 0
-104 -109 0
-100 -460 0
-101 -461 0
-102 -462 0
-103 -463 0
-104 -464 0
-100 -145 0
-101 -146 0
-102 -147 0
-103 -148 0
-104 -149 0
-100 -150 0
-101 -151 0
-102 -152 0
-103 -153 0
-104 -154 0
-100 -475 0
-101 -476 0
-102 -477 0
-103 -478 0
-104 -479 0
-105 -340 0
-106 -341 0
-107 -342 0
-108 -343 0
-109 -344 0
-105 -180 0
-106 -181 0
-107 -182 0
-108 -183 0
-109 -184 0
-105 -680 0
-106 -681 0
-107 -682 0
-108 -683 0
-109 -684 0
-105 -690 0
-106 -691 0
-107 -692 0
-108 -693 0
-109 -694 0
-105 -370 0
-106 -371 0
-107 -372 0
-108 -373 0
-109 -374 0
-105 -220 0
-106 -221 0
-107 -222 0
-108 -223 0
-109 -224 0
-105 -390 0
-106 -391 0
-107 -392 0
-108 -393 0
-109 -394 0
-105 -460 0
-106 -461 0
-107 -462 0
-108 -463 0
-109 -464 0
-110 -360 0
-111 -361 0
-112 -362 0
-113 -363 0
-114 -364 0
-110 -270 0
-111 -271 0
-112 -272 0
-113 -273 0
-114 -274 0
-110 -475 0
-111 -476 0
-112 -477 0
-113 -478 0
-114 -479 0
-120 -360 0
-121 -361 0
-122 -362 0
-123 -363 0
-124 -364 0
-120 -580 0
-121 -581 0
-122 -582 0
-123 -583 0
-124 -584 0
-125 -360 0
-126 -361 0
-127 -362 0
-128 -363 0
-129 -364 0
-125 -610 0
-126 -611 0
-127 -612 0
-128 -613 0
-129 -614 0
-125 -475 0
-126 -476 0
-127 -477 0
-128 -478 0
-129 -479 0
-130 -320 0
-131 -321 0
-132 -322 0
-133 -323 0
-134 -324 0
-130 -180 0
-131 -181 0
-132 -182 0
-133 -183 0
-134 -184 0
-130 -680 0
-131 -681 0
-132 -682 0
-133 -683 0
-134 -684 0
-130 -475 0
-131 -476 0
-132 -477 0
-133 -478 0
-134 -479 0
-135 -150 0
-136 -151 0
-137 -152 0
-138 -153 0
-139 -154 0
-140 -360 0
-141 -361 0
-142 -362 0
-143 -363 0
-144 -364 0
-140 -180 0
-141 -181 0
-142 -182 0
-143 -183 0
-144 -184 0
-140 -395 0
-141 -396 0
-142 -397 0
-143 -398 0
-144 -399 0
-145 -675 0
-146 -676 0
-147 -677 0
-148 -678 0
-149 -679 0
-145 -690 0
-146 -691 0
-147 -692 0
-148 -693 0
-149 -694 0
-145 -370 0
-146 -371 0
-147 -372 0
-148 -373 0
-149 -374 0
-145 -475 0
-146 -476 0
-147 -477 0
-148 -478 0
-149 -479 0
-145 -150 0
-146 -151 0
-147 -152 0
-148 -153 0
-149 -154 0
-145 -635 0
-146 -636 0
-147 -637 0
-148 -638 0
-149 -639 0
-150 -345 0
-151 -346 0
-152 -347 0
-153 -348 0
-154 -349 0
-150 -360 0
-151 -361 0
-152 -362 0
-153 -363 0
-154 -364 0
-150 -370 0
-151 -371 0
-152 -372 0
-153 -373 0
-154 -374 0
-150 -475 0
-151 -476 0
-152 -477 0
-153 -478 0
-154 -479 0
-160 -505 0
-161 -506 0
-162 -507 0
-163 -508 0
-164 -509 0
-160 -350 0
-161 -351 0
-162 -352 0
-163 -353 0
-164 -354 0
-160 -360 0
-161 -361 0
-162 -362 0
-163 -363 0
-164 -364 0
-160 -365 0
-161 -366 0
-162 -367 0
-163 -368 0
-164 -369 0
-160 -385 0
-161 -386 0
-162 -387 0
-163 -388 0
-164 -389 0
-160 -285 0
-161 -286 0
-162 -287 0
-163 -288 0
-164 -289 0
-165 -320 0
-166 -321 0
-167 -322 0
-168 -323 0
-169 -324 0
-165 -180 0
-166 -181 0
-167 -182 0
-168 -183 0
-169 -184 0
-165 -500 0
-166 -501 0
-167 -502 0
-168 -503 0
-169 -504 0
-165 -360 0
-166 -361 0
-167 -362 0
-168 -363 0
-169 -364 0
-165 -370 0
-166 -371 0
-167 -372 0
-168 -373 0
-169 -374 0
-165 -690 0
-166 -691 0
-167 -692 0
-168 -693 0
-169 -694 0
-165 -390 0
-166 -391 0
-167 -392 0
-168 -393 0
-169 -394 0
-165 -270 0
-166 -271 0
-167 -272 0
-168 -273 0
-169 -274 0
-165 -600 0
-166 -601 0
-167 -602 0
-168 -603 0
-169 -604 0
-165 -445 0
-166 -446 0
-167 -447 0
-168 -448 0
-169 -449 0
-165 -475 0
-166 -476 0
-167 -477 0
-168 -478 0
-169 -479 0
-170 -500 0
-171 -501 0
-172 -502 0
-173 -503 0
-174 -504 0
-170 -305 0
-171 -306 0
-172 -307 0
-173 -308 0
-174 -309 0
-170 -470 0
-171 -471 0
-172 -472 0
-173 -473 0
-174 -474 0
-170 -475 0
-171 -476 0
-172 -477 0
-173 -478 0
-174 -479 0
-175 -320 0
-176 -321 0
-177 -322 0
-178 -323 0
-179 -324 0
-175 -450 0
-176 -451 0
-177 -452 0
-178 -453 0
-179 -454 0
-180 -665 0
-181 -666 0
-182 -667 0
-183 -668 0
-184 -669 0
-180 -685 0
-181 -686 0
-182 -687 0
-183 -688 0
-184 -689 0
-180 -675 0
-181 -676 0
-182 -677 0
-183 -678 0
-184 -679 0
-180 -680 0
-181 -681 0
-182 -682 0
-183 -683 0
-184 -684 0
-180 -690 0
-181 -691 0
-182 -692 0
-183 -693 0
-184 -694 0
-180 -185 0
-181 -186 0
-182 -187 0
-183 -188 0
-184 -189 0
-180 -225 0
-181 -226 0
-182 -227 0
-183 -228 0
-184 -229 0
-180 -240 0
-181 -241 0
-182 -242 0
-183 -243 0
-184 -244 0
-180 -255 0
-181 -256 0
-182 -257 0
-183 -258 0
-184 -259 0
-180 -260 0
-181 -261 0
-182 -262 0
-183 -263 0
-184 -264 0
-180 -295 0
-181 -296 0
-182 -297 0
-183 -298 0
-184 -299 0
-180 -320 0
-181 -321 0
-182 -322 0
-183 -323 0
-184 -324 0
-180 -330 0
-181 -331 0
-182 -332 0
-183 -333 0
-184 -334 0
-180 -355 0
-181 -356 0
-182 -357 0
-183 -358 0
-184 -359 0
-180 -360 0
-181 -361 0
-182 -362 0
-183 -363 0
-184 -364 0
-180 -370 0
-181 -371 0
-182 -372 0
-183 -373 0
-184 -374 0
-180 -380 0
-181 -381 0
-182 -382 0
-183 -383 0
-184 -384 0
-180 -385 0
-181 -386 0
-182 -387 0
-183 -388 0
-184 -389 0
-180 -395 0
-181 -396 0
-182 -397 0
-183 -398 0
-184 -399 0
-180 -400 0
-181 -401 0
-182 -402 0
-183 -403 0
-184 -404 0
-180 -405 0
-181 -406 0
-182 -407 0
-183 -408 0
-184 -409 0
-180 -415 0
-181 -416 0
-182 -417 0
-183 -418 0
-184 -419 0
-180 -425 0
-181 -426 0
-182 -427 0
-183 -428 0
-184 -429 0
-180 -445 0
-181 -446 0
-182 -447 0
-183 -448 0
-184 -449 0
-180 -455 0
-181 -456 0
-182 -457 0
-183 -458 0
-184 -459 0
-180 -465 0
-181 -466 0
-182 -467 0
-183 -468 0
-184 -469 0
-180 -475 0
-181 -476 0
-182 -477 0
-183 -478 0
-184 -479 0
-180 -495 0
-181 -496 0
-182 -497 0
-183 -498 0
-184 -499 0
-180 -500 0
-181 -501 0
-182 -502 0
-183 -503 0
-184 -504 0
-180 -515 0
-181 -516 0
-182 -517 0
-183 -518 0
-184 -519 0
-180 -530 0
-181 -531 0
-182 -532 0
-183 -533 0
-184 -534 0
-180 -540 0
-181 -541 0
-182 -542 0
-183 -543 0
-184 -544 0
-180 -575 0
-181 -576 0
-182 -577 0
-183 -578 0
-184 -579 0
-180 -580 0
-181 -581 0
-182 -582 0
-183 -583 0
-184 -584 0
-180 -590 0
-181 -591 0
-182 -592 0
-183 -593 0
-184 -594 0
-180 -625 0
-181 -626 0
-182 -627 0
-183 -628 0
-184 -629 0
-180 -635 0
-181 -636 0
-182 -637 0
-183 -638 0
-184 -639 0
-185 -360 0
-186 -361 0
-187 -362 0
-188 -363 0
-189 -364 0
-185 -385 0
-186 -386 0
-187 -387 0
-188 -388 0
-189 -389 0
-185 -580 0
-186 -581 0
-187 -582 0
-188 -583 0
-189 -584 0
-185 -475 0
-186 -476 0
-187 -477 0
-188 -478 0
-189 -479 0
-190 -360 0
-191 -361 0
-192 -362 0
-193 -363 0
-194 -364 0
-190 -475 0
-191 -476 0
-192 -477 0
-193 -478 0
-194 -479 0
-200 -320 0
-201 -321 0
-202 -322 0
-203 -323 0
-204 -324 0
-200 -310 0
-201 -311 0
-202 -312 0
-203 -313 0
-204 -314 0
-205 -635 0
-206 -636 0
-207 -637 0
-208 -638 0
-209 -639 0
-210 -665 0
-211 -666 0
-212 -667 0
-213 -668 0
-214 -669 0
-215 -610 0
-216 -611 0
-217 -612 0
-218 -613 0
-219 -614 0
-220 -370 0
-221 -371 0
-222 -372 0
-223 -373 0
-224 -374 0
-225 -320 0
-226 -321 0
-227 -322 0
-228 -323 0
-229 -324 0
-225 -680 0
-226 -681 0
-227 -682 0
-228 -683 0
-229 -684 0
-225 -370 0
-226 -371 0
-227 -372 0
-228 -373 0
-229 -374 0
-225 -690 0
-226 -691 0
-227 -692 0
-228 -693 0
-229 -694 0
-225 -575 0
-226 -576 0
-227 -577 0
-228 -578 0
-229 -579 0
-225 -410 0
-226 -411 0
-227 -412 0
-228 -413 0
-229 -414 0
-225 -635 0
-226 -636 0
-227 -637 0
-228 -638 0
-229 -639 0
-225 -305 0
-226 -306 0
-227 -307 0
-228 -308 0
-229 -309 0
-225 -475 0
-226 -476 0
-227 -477 0
-228 -478 0
-229 -479 0
-230 -650 0
-231 -651 0
-232 -652 0
-233 -653 0
-234 -654 0
-230 -340 0
-231 -341 0
-232 -342 0
-233 -343 0
-234 -344 0
-230 -370 0
-231 -371 0
-232 -372 0
-233 -373 0
-234 -374 0
-230 -690 0
-231 -691 0
-232 -692 0
-233 -693 0
-234 -694 0
-235 -360 0
-236 -361 0
-237 -362 0
-238 -363 0
-239 -364 0
-235 -690 0
-236 -691 0
-237 -692 0
-238 -693 0
-239 -694 0
-235 -420 0
-236 -421 0
-237 -422 0
-238 -423 0
-239 -424 0
-235 -475 0
-236 -476 0
-237 -477 0
-238 -478 0
-239 -479 0
-245 -655 0
-246 -656 0
-247 -657 0
-248 -658 0
-249 -659 0
-245 -665 0
-246 -666 0
-247 -667 0
-248 -668 0
-249 -669 0
-245 -360 0
-246 -361 0
-247 -362 0
-248 -363 0
-249 -364 0
-245 -685 0
-246 -686 0
-247 -687 0
-248 -688 0
-249 -689 0
-245 -580 0
-246 -581 0
-247 -582 0
-248 -583 0
-249 -584 0
-250 -480 0
-251 -481 0
-252 -482 0
-253 -483 0
-254 -484 0
-255 -495 0
-256 -496 0
-257 -497 0
-258 -498 0
-259 -499 0
-255 -500 0
-256 -501 0
-257 -502 0
-258 -503 0
-259 -504 0
-255 -380 0
-256 -381 0
-257 -382 0
-258 -383 0
-259 -384 0
-255 -475 0
-256 -476 0
-257 -477 0
-258 -478 0
-259 -479 0
-260 -580 0
-261 -581 0
-262 -582 0
-263 -583 0
-264 -584 0
-260 -530 0
-261 -531 0
-262 -532 0
-263 -533 0
-264 -534 0
-265 -670 0
-266 -671 0
-267 -672 0
-268 -673 0
-269 -674 0
-265 -690 0
-266 -691 0
-267 -692 0
-268 -693 0
-269 -694 0
-265 -425 0
-266 -426 0
-267 -427 0
-268 -428 0
-269 -429 0
-265 -590 0
-266 -591 0
-267 -592 0
-268 -593 0
-269 -594 0
-270 -320 0
-271 -321 0
-272 -322 0
-273 -323 0
-274 -324 0
-270 -335 0
-271 -336 0
-272 -337 0
-273 -338 0
-274 -339 0
-270 -500 0
-271 -501 0
-272 -502 0
-273 -503 0
-274 -504 0
-270 -350 0
-271 -351 0
-272 -352 0
-273 -353 0
-274 -354 0
-270 -360 0
-271 -361 0
-272 -362 0
-273 -363 0
-274 -364 0
-270 -690 0
-271 -691 0
-272 -692 0
-273 -693 0
-274 -694 0
-270 -385 0
-271 -386 0
-272 -387 0
-273 -388 0
-274 -389 0
-270 -600 0
-271 -601 0
-272 -602 0
-273 -603 0
-274 -604 0
-270 -285 0
-271 -286 0
-272 -287 0
-273 -288 0
-274 -289 0
-270 -475 0
-271 -476 0
-272 -477 0
-273 -478 0
-274 -479 0
-275 -615 0
-276 -616 0
-277 -617 0
-278 -618 0
-279 -619 0
-275 -460 0
-276 -461 0
-277 -462 0
-278 -463 0
-279 -464 0
-280 -360 0
-281 -361 0
-282 -362 0
-283 -363 0
-284 -364 0
-285 -505 0
-286 -506 0
-287 -507 0
-288 -508 0
-289 -509 0
-285 -350 0
-286 -351 0
-287 -352 0
-288 -353 0
-289 -354 0
-285 -360 0
-286 -361 0
-287 -362 0
-288 -363 0
-289 -364 0
-285 -365 0
-286 -366 0
-287 -367 0
-288 -368 0
-289 -369 0
-285 -385 0
-286 -386 0
-287 -387 0
-288 -388 0
-289 -389 0
-290 -445 0
-291 -446 0
-292 -447 0
-293 -448 0
-294 -449 0
-290 -690 0
-291 -691 0
-292 -692 0
-293 -693 0
-294 -694 0
-290 -425 0
-291 -426 0
-292 -427 0
-293 -428 0
-294 -429 0
-290 -630 0
-291 -631 0
-292 -632 0
-293 -633 0
-294 -634 0
-295 -675 0
-296 -676 0
-297 -677 0
-298 -678 0
-299 -679 0
-295 -680 0
-296 -681 0
-297 -682 0
-298 -683 0
-299 -684 0
-295 -690 0
-296 -691 0
-297 -692 0
-298 -693 0
-299 -694 0
-295 -370 0
-296 -371 0
-297 -372 0
-298 -373 0
-299 -374 0
-295 -415 0
-296 -416 0
-297 -417 0
-298 -418 0
-299 -419 0
-300 -370 0
-301 -371 0
-302 -372 0
-303 -373 0
-304 -374 0
-300 -585 0
-301 -586 0
-302 -587 0
-303 -588 0
-304 -589 0
-300 -675 0
-301 -676 0
-302 -677 0
-303 -678 0
-304 -679 0
-305 -500 0
-306 -501 0
-307 -502 0
-308 -503 0
-309 -504 0
-305 -520 0
-306 -521 0
-307 -522 0
-308 -523 0
-309 -524 0
-305 -410 0
-306 -411 0
-307 -412 0
-308 -413 0
-309 -414 0
-305 -470 0
-306 -471 0
-307 -472 0
-308 -473 0
-309 -474 0
-305 -475 0
-306 -476 0
-307 -477 0
-308 -478 0
-309 -479 0
-310 -320 0
-311 -321 0
-312 -322 0
-313 -323 0
-314 -324 0
-315 -415 0
-316 -416 0
-317 -417 0
-318 -418 0
-319 -419 0
-320 -450 0
-321 -451 0
-322 -452 0
-323 -453 0
-324 -454 0
-320 -360 0
-321 -361 0
-322 -362 0
-323 -363 0
-324 -364 0
-320 -690 0
-321 -691 0
-322 -692 0
-323 -693 0
-324 -694 0
-320 -680 0
-321 -681 0
-322 -682 0
-323 -683 0
-324 -684 0
-320 -600 0
-321 -601 0
-322 -602 0
-323 -603 0
-324 -604 0
-320 -475 0
-321 -476 0
-322 -477 0
-323 -478 0
-324 -479 0
-325 -675 0
-326 -676 0
-327 -677 0
-328 -678 0
-329 -679 0
-325 -370 0
-326 -371 0
-327 -372 0
-328 -373 0
-329 -374 0
-325 -475 0
-326 -476 0
-327 -477 0
-328 -478 0
-329 -479 0
-335 -360 0
-336 -361 0
-337 -362 0
-338 -363 0
-339 -364 0
-335 -385 0
-336 -386 0
-337 -387 0
-338 -388 0
-339 -389 0
-340 -650 0
-341 -651 0
-342 -652 0
-343 -653 0
-344 -654 0
-340 -370 0
-341 -371 0
-342 -372 0
-343 -373 0
-344 -374 0
-340 -690 0
-341 -691 0
-342 -692 0
-343 -693 0
-344 -694 0
-345 -430 0
-346 -431 0
-347 -432 0
-348 -433 0
-349 -434 0
-350 -505 0
-351 -506 0
-352 -507 0
-353 -508 0
-354 -509 0
-350 -360 0
-351 -361 0
-352 -362 0
-353 -363 0
-354 -364 0
-350 -365 0
-351 -366 0
-352 -367 0
-353 -368 0
-354 -369 0
-350 -385 0
-351 -386 0
-352 -387 0
-353 -388 0
-354 -389 0
-350 -580 0
-351 -581 0
-352 -582 0
-353 -583 0
-354 -584 0
-350 -475 0
-351 -476 0
-352 -477 0
-353 -478 0
-354 -479 0
-360 -655 0
-361 -656 0
-362 -657 0
-363 -658 0
-364 -659 0
-360 -665 0
-361 -666 0
-362 -667 0
-363 -668 0
-364 -669 0
-360 -690 0
-361 -691 0
-362 -692 0
-363 -693 0
-364 -694 0
-360 -365 0
-361 -366 0
-362 -367 0
-363 -368 0
-364 -369 0
-360 -370 0
-361 -371 0
-362 -372 0
-363 -373 0
-364 -374 0
-360 -385 0
-361 -386 0
-362 -387 0
-363 -388 0
-364 -389 0
-360 -395 0
-361 -396 0
-362 -397 0
-363 -398 0
-364 -399 0
-360 -420 0
-361 -421 0
-362 -422 0
-363 -423 0
-364 -424 0
-360 -425 0
-361 -426 0
-362 -427 0
-363 -428 0
-364 -429 0
-360 -445 0
-361 -446 0
-362 -447 0
-363 -448 0
-364 -449 0
-360 -465 0
-361 -466 0
-362 -467 0
-363 -468 0
-364 -469 0
-360 -475 0
-361 -476 0
-362 -477 0
-363 -478 0
-364 -479 0
-360 -500 0
-361 -501 0
-362 -502 0
-363 -503 0
-364 -504 0
-360 -505 0
-361 -506 0
-362 -507 0
-363 -508 0
-364 -509 0
-360 -510 0
-361 -511 0
-362 -512 0
-363 -513 0
-364 -514 0
-360 -530 0
-361 -531 0
-362 -532 0
-363 -533 0
-364 -534 0
-360 -540 0
-361 -541 0
-362 -542 0
-363 -543 0
-364 -544 0
-360 -545 0
-361 -546 0
-362 -547 0
-363 -548 0
-364 -549 0
-360 -550 0
-361 -551 0
-362 -552 0
-363 -553 0
-364 -554 0
-360 -555 0
-361 -556 0
-362 -557 0
-363 -558 0
-364 -559 0
-360 -560 0
-361 -561 0
-362 -562 0
-363 -563 0
-364 -564 0
-360 -580 0
-361 -581 0
-362 -582 0
-363 -583 0
-364 -584 0
-360 -600 0
-361 -601 0
-362 -602 0
-363 -603 0
-364 -604 0
-360 -610 0
-361 -611 0
-362 -612 0
-363 -613 0
-364 -614 0
-365 -505 0
-366 -506 0
-367 -507 0
-368 -508 0
-369 -509 0
-365 -385 0
-366 -386 0
-367 -387 0
-368 -388 0
-369 -389 0
-370 -650 0
-371 -651 0
-372 -652 0
-373 -653 0
-374 -654 0
-370 -680 0
-371 -681 0
-372 -682 0
-373 -683 0
-374 -684 0
-370 -675 0
-371 -676 0
-372 -677 0
-373 -678 0
-374 -679 0
-370 -690 0
-371 -691 0
-372 -692 0
-373 -693 0
-374 -694 0
-370 -375 0
-371 -376 0
-372 -377 0
-373 -378 0
-374 -379 0
-370 -390 0
-371 -391 0
-372 -392 0
-373 -393 0
-374 -394 0
-370 -405 0
-371 -406 0
-372 -407 0
-373 -408 0
-374 -409 0
-370 -415 0
-371 -416 0
-372 -417 0
-373 -418 0
-374 -419 0
-370 -425 0
-371 -426 0
-372 -427 0
-373 -428 0
-374 -429 0
-370 -445 0
-371 -446 0
-372 -447 0
-373 -448 0
-374 -449 0
-370 -455 0
-371 -456 0
-372 -457 0
-373 -458 0
-374 -459 0
-370 -460 0
-371 -461 0
-372 -462 0
-373 -463 0
-374 -464 0
-370 -475 0
-371 -476 0
-372 -477 0
-373 -478 0
-374 -479 0
-370 -495 0
-371 -496 0
-372 -497 0
-373 -498 0
-374 -499 0
-370 -525 0
-371 -526 0
-372 -527 0
-373 -528 0
-374 -529 0
-370 -540 0
-371 -541 0
-372 -542 0
-373 -543 0
-374 -544 0
-370 -580 0
-371 -581 0
-372 -582 0
-373 -583 0
-374 -584 0
-370 -585 0
-371 -586 0
-372 -587 0
-373 -588 0
-374 -589 0
-370 -595 0
-371 -596 0
-372 -597 0
-373 -598 0
-374 -599 0
-370 -615 0
-371 -616 0
-372 -617 0
-373 -618 0
-374 -619 0
-370 -635 0
-371 -636 0
-372 -637 0
-373 -638 0
-374 -639 0
-380 -495 0
-381 -496 0
-382 -497 0
-383 -498 0
-384 -499 0
-380 -500 0
-381 -501 0
-382 -502 0
-383 -503 0
-384 -504 0
-380 -475 0
-381 -476 0
-382 -477 0
-383 -478 0
-384 -479 0
-385 -505 0
-386 -506 0
-387 -507 0
-388 -508 0
-389 -509 0
-385 -580 0
-386 -581 0
-387 -582 0
-388 -583 0
-389 -584 0
-385 -475 0
-386 -476 0
-387 -477 0
-388 -478 0
-389 -479 0
-390 -495 0
-391 -496 0
-392 -497 0
-393 -498 0
-394 -499 0
-390 -675 0
-391 -676 0
-392 -677 0
-393 -678 0
-394 -679 0
-390 -680 0
-391 -681 0
-392 -682 0
-393 -683 0
-394 -684 0
-390 -690 0
-391 -691 0
-392 -692 0
-393 -693 0
-394 -694 0
-390 -445 0
-391 -446 0
-392 -447 0
-393 -448 0
-394 -449 0
-390 -615 0
-391 -616 0
-392 -617 0
-393 -618 0
-394 -619 0
-390 -460 0
-391 -461 0
-392 -462 0
-393 -463 0
-394 -464 0
-395 -475 0
-396 -476 0
-397 -477 0
-398 -478 0
-399 -479 0
-405 -495 0
-406 -496 0
-407 -497 0
-408 -498 0
-409 -499 0
-405 -675 0
-406 -676 0
-407 -677 0
-408 -678 0
-409 -679 0
-405 -680 0
-406 -681 0
-407 -682 0
-408 -683 0
-409 -684 0
-405 -690 0
-406 -691 0
-407 -692 0
-408 -693 0
-409 -694 0
-405 -580 0
-406 -581 0
-407 -582 0
-408 -583 0
-409 -584 0
-405 -455 0
-406 -456 0
-407 -457 0
-408 -458 0
-409 -459 0
-410 -475 0
-411 -476 0
-412 -477 0
-413 -478 0
-414 -479 0
-415 -675 0
-416 -676 0
-417 -677 0
-418 -678 0
-419 -679 0
-415 -680 0
-416 -681 0
-417 -682 0
-418 -683 0
-419 -684 0
-415 -690 0
-416 -691 0
-417 -692 0
-418 -693 0
-419 -694 0
-415 -445 0
-416 -446 0
-417 -447 0
-418 -448 0
-419 -449 0
-420 -510 0
-421 -511 0
-422 -512 0
-423 -513 0
-424 -514 0
-425 -670 0
-426 -671 0
-427 -672 0
-428 -673 0
-429 -674 0
-425 -675 0
-426 -676 0
-427 -677 0
-428 -678 0
-429 -679 0
-425 -680 0
-426 -681 0
-427 -682 0
-428 -683 0
-429 -684 0
-425 -690 0
-426 -691 0
-427 -692 0
-428 -693 0
-429 -694 0
-425 -540 0
-426 -541 0
-427 -542 0
-428 -543 0
-429 -544 0
-425 -590 0
-426 -591 0
-427 -592 0
-428 -593 0
-429 -594 0
-425 -445 0
-426 -446 0
-427 -447 0
-428 -448 0
-429 -449 0
-425 -630 0
-426 -631 0
-427 -632 0
-428 -633 0
-429 -634 0
-445 -675 0
-446 -676 0
-447 -677 0
-448 -678 0
-449 -679 0
-445 -680 0
-446 -681 0
-447 -682 0
-448 -683 0
-449 -684 0
-445 -540 0
-446 -541 0
-447 -542 0
-448 -543 0
-449 -544 0
-445 -690 0
-446 -691 0
-447 -692 0
-448 -693 0
-449 -694 0
-445 -630 0
-446 -631 0
-447 -632 0
-448 -633 0
-449 -634 0
-455 -495 0
-456 -496 0
-457 -497 0
-458 -498 0
-459 -499 0
-455 -675 0
-456 -676 0
-457 -677 0
-458 -678 0
-459 -679 0
-455 -680 0
-456 -681 0
-457 -682 0
-458 -683 0
-459 -684 0
-455 -690 0
-456 -691 0
-457 -692 0
-458 -693 0
-459 -694 0
-455 -580 0
-456 -581 0
-457 -582 0
-458 -583 0
-459 -584 0
-460 -615 0
-461 -616 0
-462 -617 0
-463 -618 0
-464 -619 0
-465 -485 0
-466 -486 0
-467 -487 0
-468 -488 0
-469 -489 0
-465 -680 0
-466 -681 0
-467 -682 0
-468 -683 0
-469 -684 0
-465 -575 0
-466 -576 0
-467 -577 0
-468 -578 0
-469 -579 0
-465 -475 0
-466 -476 0
-467 -477 0
-468 -478 0
-469 -479 0
-470 -500 0
-471 -501 0
-472 -502 0
-473 -503 0
-474 -504 0
-470 -475 0
-471 -476 0
-472 -477 0
-473 -478 0
-474 -479 0
-475 -675 0
-476 -676 0
-477 -677 0
-478 -678 0
-479 -679 0
-475 -680 0
-476 -681 0
-477 -682 0
-478 -683 0
-479 -684 0
-475 -690 0
-476 -691 0
-477 -692 0
-478 -693 0
-479 -694 0
-475 -485 0
-476 -486 0
-477 -487 0
-478 -488 0
-479 -489 0
-475 -490 0
-476 -491 0
-477 -492 0
-478 -493 0
-479 -494 0
-475 -495 0
-476 -496 0
-477 -497 0
-478 -498 0
-479 -499 0
-475 -500 0
-476 -501 0
-477 -502 0
-478 -503 0
-479 -504 0
-475 -520 0
-476 -521 0
-477 -522 0
-478 -523 0
-479 -524 0
-475 -530 0
-476 -531 0
-477 -532 0
-478 -533 0
-479 -534 0
-475 -540 0
-476 -541 0
-477 -542 0
-478 -543 0
-479 -544 0
-475 -545 0
-476 -546 0
-477 -547 0
-478 -548 0
-479 -549 0
-475 -550 0
-476 -551 0
-477 -552 0
-478 -553 0
-479 -554 0
-475 -575 0
-476 -576 0
-477 -577 0
-478 -578 0
-479 -579 0
-475 -580 0
-476 -581 0
-477 -582 0
-478 -583 0
-479 -584 0
-475 -600 0
-476 -601 0
-477 -602 0
-478 -603 0
-479 -604 0
-475 -610 0
-476 -611 0
-477 -612 0
-478 -613 0
-479 -614 0
-475 -620 0
-476 -621 0
-477 -622 0
-478 -623 0
-479 -624 0
-485 -575 0
-486 -576 0
-487 -577 0
-488 -578 0
-489 -579 0
-490 -620 0
-491 -621 0
-492 -622 0
-493 -623 0
-494 -624 0
-495 -500 0
-496 -501 0
-497 -502 0
-498 -503 0
-499 -504 0
-495 -675 0
-496 -676 0
-497 -677 0
-498 -678 0
-499 -679 0
-495 -680 0
-496 -681 0
-497 -682 0
-498 -683 0
-499 -684 0
-495 -690 0
-496 -691 0
-497 -692 0
-498 -693 0
-499 -694 0
-495 -580 0
-496 -581 0
-497 -582 0
-498 -583 0
-499 -584 0
-500 -550 0
-501 -551 0
-502 -552 0
-503 -553 0
-504 -554 0
-530 -665 0
-531 -666 0
-532 -667 0
-533 -668 0
-534 -669 0
-530 -540 0
-531 -541 0
-532 -542 0
-533 -543 0
-534 -544 0
-530 -580 0
-531 -581 0
-532 -582 0
-533 -583 0
-534 -584 0
-540 -675 0
-541 -676 0
-542 -677 0
-543 -678 0
-544 -679 0
-540 -680 0
-541 -681 0
-542 -682 0
-543 -683 0
-544 -684 0
-540 -690 0
-541 -691 0
-542 -692 0
-543 -693 0
-544 -694 0
-545 -665 0
-546 -666 0
-547 -667 0
-548 -668 0
-549 -669 0
-545 -685 0
-546 -686 0
-547 -687 0
-548 -688 0
-549 -689 0
-545 -580 0
-546 -581 0
-547 -582 0
-548 -583 0
-549 -584 0
-555 -665 0
-556 -666 0
-557 -667 0
-558 -668 0
-559 -669 0
-560 -580 0
-561 -581 0
-562 -582 0
-563 -583 0
-564 -584 0
-560 -690 0
-561 -691 0
-562 -692 0
-563 -693 0
-564 -694 0
-560 -600 0
-561 -601 0
-562 -602 0
-563 -603 0
-564 -604 0
-575 -680 0
-576 -681 0
-577 -682 0
-578 -683 0
-579 -684 0
-580 -640 0
-581 -641 0
-582 -642 0
-583 -643 0
-584 -644 0
-580 -655 0
-581 -656 0
-582 -657 0
-583 -658 0
-584 -659 0
-580 -665 0
-581 -666 0
-582 -667 0
-583 -668 0
-584 -669 0
-580 -675 0
-581 -676 0
-582 -677 0
-583 -678 0
-584 -679 0
-580 -685 0
-581 -686 0
-582 -687 0
-583 -688 0
-584 -689 0
-580 -680 0
-581 -681 0
-582 -682 0
-583 -683 0
-584 -684 0
-580 -690 0
-581 -691 0
-582 -692 0
-583 -693 0
-584 -694 0
-585 -675 0
-586 -676 0
-587 -677 0
-588 -678 0
-589 -679 0
-590 -690 0
-591 -691 0
-592 -692 0
-593 -693 0
-594 -694 0
-590 -630 0
-591 -631 0
-592 -632 0
-593 -633 0
-594 -634 0
-595 -675 0
-596 -676 0
-597 -677 0
-598 -678 0
-599 -679 0
-600 -690 0
-601 -691 0
-602 -692 0
-603 -693 0
-604 -694 0
-630 -690 0
-631 -691 0
-632 -692 0
-633 -693 0
-634 -694 0
-635 -690 0
-636 -691 0
-637 -692 0
-638 -693 0
-639 -694 0
-640 -665 0
-641 -666 0
-642 -667 0
-643 -668 0
-644 -669 0
-645 -675 0
-646 -676 0
-647 -677 0
-648 -678 0
-649 -679 0
-650 -690 0
-651 -691 0
-652 -692 0
-653 -693 0
-654 -694 0
-655 -665 0
-656 -666 0
-657 -667 0
-658 -668 0
-659 -669 0
-670 -690 0
-671 -691 0
-672 -692 0
-673 -693 0
-674 -694 0
-675 -680 0
-676 -681 0
-677 -682 0
-678 -683 0
-679 -684 0
-675 -690 0
-676 -691 0
-677 -692 0
-678 -693 0
-679 -694 0
-680 -690 0
-681 -691 0
-682 -692 0
-683 -693 0
-684 -694 0
